QBPP_HJ*_40_025_10_3
40 194 25
10 39 29 10 50 9 30 36 45 3 16 3 27 15 45 30 33 28 19 3 46 32 13 26 23 47 13 24 2 37 9 18 46 34 14 5 23 15 39 20
    0    0   11    0    0    0    0  -37    0   -1    0   22  -27    0    0    0    0    0   19    0  -42    0    0    0    0    0  -17    0    0   15    0    0    0    0    0   26    0    0    0    0
    0    0   43    0    0    0    0    0    0    0    0    0    0  -35    0    0    0  -12  -32    0   35    0    0   49  -46  -23    0    0    0    0   12    0   32   17   19    0    0    0    0    0
   11   43    0   32    0   -7    0    0    0    0   38    0    0   39    0    0   13    0    0   23    0    0  -10   38    0    0   12    0    0   37    0    0    0   29    0    0  -43  -21    0    0
    0    0   32    0    0    0    0   46    0    0    0    0    0  -20    0    0    0    0    0    0    0    0   33    0    0   12    0    0    0    0   20   40   47    0    0    0  -12    0    0    0
    0    0    0    0    0    0    0  -17    0    0   14    0    0    0    0   26    0    0    0    0    0   41    0  -31  -16   18    0    0    0    0    0  -43    0    0    0    0    0    0    0    0
    0    0   -7    0    0    0    0    0   43    0    0    0    0    0    0    0    0    0    0    0   -4  -49   48    0    0    0  -25    0    0    0   30    0   -8    0    0   -6    0    0    0    0
    0    0    0    0    0    0    0   -6    0    0    0  -27    3    0    0    0    0    0    0    0    0    0    0    0    0  -45    0   16    0    0    0    0   41    0    0    0   28    0   49    0
  -37    0    0   46  -17    0   -6    0    0    0    0    0   46    0    0    0    0   50    0    0    0   39    0   35    0    0    0   49  -18  -28    0    0    0    0    0    0    0    0    1    0
    0    0    0    0    0   43    0    0    0    0    0    0    0    0    0    0    0    0    1  -28    0  -11    9  -15    0    0    0    0    0   21    0    0    0    0    0    0    0    0    0    0
   -1    0    0    0    0    0    0    0    0    0    0    0  -49    0    0    0   12    0    0    0    0    0    0    0    0  -50   20    0    0    0    0    0   27    0    0  -29    0    0    0   48
    0    0   38    0   14    0    0    0    0    0    0    0    0    0    0    0    0    0    0    0    0    0    0    0    0    0    0    0    0    0    0   10    0    0    0    0    0    0   -7    0
   22    0    0    0    0    0  -27    0    0    0    0    0    0    0  -37  -15   19    0    0   41  -30    0    0  -37    0    0   -5    0    0   48    0    0    0    0  -41    0    0    0    0   47
  -27    0    0    0    0    0    3   46    0  -49    0    0    0   26    0  -27    0   42    0    0    0    0    0    0    0    0    0    0  -14    0    0    0    0    0    0    0    0    0  -19    0
    0  -35   39  -20    0    0    0    0    0    0    0    0   26    0    0   42    0    0    0    0    0  -15    0    0   22    0  -50    0   43    0    0    0    0   26    0  -21    0    0    0    0
    0    0    0    0    0    0    0    0    0    0    0  -37    0    0    0  -40   36    0    0    0    0    0   16    0    0    0    0    0   -3    0    0    0  -32    0  -23    0    0   39   -1    0
    0    0    0    0   26    0    0    0    0    0    0  -15  -27   42  -40    0   -1   -1  -24    0  -25    0    0    0  -19    0    0    0    0    0    0    0    4    3    0    0   44    0    0    0
    0    0   13    0    0    0    0    0    0   12    0   19    0    0   36   -1    0    4   20  -29   29    0    0    6   35    0    0    0    0    0    0   20    0    0    0    0    0    0   39  -22
    0  -12    0    0    0    0    0   50    0    0    0    0   42    0    0   -1    4    0    0    0    0    0    0    0    0    0   30   26    0  -19    0    0    0    0   37    0    0    0    0    0
   19  -32    0    0    0    0    0    0    1    0    0    0    0    0    0  -24   20    0    0    0    0    0   -6    0    0    0    0  -31    0    0    0    0    0    0    0    8    0   31    0   39
    0    0   23    0    0    0    0    0  -28    0    0   41    0    0    0    0  -29    0    0    0    0    0    0    0    0  -24    0    0    0    0    0    6    0    0   27    0   36    0    0   42
  -42   35    0    0    0   -4    0    0    0    0    0  -30    0    0    0  -25   29    0    0    0    0   28    0    0    5    0  -36   46    0    0  -43    0    0    0  -33    0    0  -42    0    0
    0    0    0    0   41  -49    0   39  -11    0    0    0    0  -15    0    0    0    0    0    0   28    0    0    0    0    0  -48    0    0   29    0    0    0    0    0    0    0    0    0    0
    0    0  -10   33    0   48    0    0    9    0    0    0    0    0   16    0    0    0   -6    0    0    0    0    0   35    0  -36   14    0    0  -43    0    0    0   44   16  -32    0   19   16
    0   49   38    0  -31    0    0   35  -15    0    0  -37    0    0    0    0    6    0    0    0    0    0    0    0  -48    0   47    0    0    0    0    0   25    0   38    0    0    0   16   26
    0  -46    0    0  -16    0    0    0    0    0    0    0    0   22    0  -19   35    0    0    0    5    0   35  -48    0    0    4    0    7    0    0    0  -20    0  -48    0    0    0    0    0
    0  -23    0   12   18    0  -45    0    0  -50    0    0    0    0    0    0    0    0    0  -24    0    0    0    0    0    0    1    0    0    0    0    0    0    0    0    0   -5    0    0    0
  -17    0   12    0    0  -25    0    0    0   20    0   -5    0  -50    0    0    0   30    0    0  -36  -48  -36   47    4    1    0   -3    0    2    0   -8    0    0   13    0    0    0    0    0
    0    0    0    0    0    0   16   49    0    0    0    0    0    0    0    0    0   26  -31    0   46    0   14    0    0    0   -3    0    0  -46    0    0    0  -36    0    0  -40    0    0    0
    0    0    0    0    0    0    0  -18    0    0    0    0  -14   43   -3    0    0    0    0    0    0    0    0    0    7    0    0    0    0    0    0    0    0   37  -19    0   22    0    6    0
   15    0   37    0    0    0    0  -28   21    0    0   48    0    0    0    0    0  -19    0    0    0   29    0    0    0    0    2  -46    0    0    0    0    0   49    0   34    0    0    0    0
    0   12    0   20    0   30    0    0    0    0    0    0    0    0    0    0    0    0    0    0  -43    0  -43    0    0    0    0    0    0    0    0    0    0    0   36    0    0   24    0   -2
    0    0    0   40  -43    0    0    0    0    0   10    0    0    0    0    0   20    0    0    6    0    0    0    0    0    0   -8    0    0    0    0    0    0    0   20    0    0    0    0    0
    0   32    0   47    0   -8   41    0    0   27    0    0    0    0  -32    4    0    0    0    0    0    0    0   25  -20    0    0    0    0    0    0    0    0    0    0    0    0    0    0    0
    0   17   29    0    0    0    0    0    0    0    0    0    0   26    0    3    0    0    0    0    0    0    0    0    0    0    0  -36   37   49    0    0    0    0    0    0    0  -47    0    0
    0   19    0    0    0    0    0    0    0    0    0  -41    0    0  -23    0    0   37    0   27  -33    0   44   38  -48    0   13    0  -19    0   36   20    0    0    0  -46    0    0    0    0
   26    0    0    0    0   -6    0    0    0  -29    0    0    0  -21    0    0    0    0    8    0    0    0   16    0    0    0    0    0    0   34    0    0    0    0  -46    0    0    0    0    0
    0    0  -43  -12    0    0   28    0    0    0    0    0    0    0    0   44    0    0    0   36    0    0  -32    0    0   -5    0  -40   22    0    0    0    0    0    0    0    0    0    0    0
    0    0  -21    0    0    0    0    0    0    0    0    0    0    0   39    0    0    0   31    0  -42    0    0    0    0    0    0    0    0    0   24    0    0  -47    0    0    0    0    1    0
    0    0    0    0    0    0   49    1    0    0   -7    0  -19    0   -1    0   39    0    0    0    0    0   19   16    0    0    0    0    6    0    0    0    0    0    0    0    0    1    0    0
    0    0    0    0    0    0    0    0    0   48    0   47    0    0    0    0  -22    0   39   42    0    0   16   26    0    0    0    0    0    0   -2    0    0    0    0    0    0    0    0    0
